p cnf 560 1057
9  5  -6  0
-17  13  14  0
37  -33  34  0
49  45  46  0
-53  49  -50  0
57  -53  -54  0
-61  -57  -58  0
69  65  66  0
-73  69  70  0
77  -73  74  0
-81  77  78  0
85  -81  82  0
-101  97  -98  0
105  -101  102  0
109  105  -106  0
113  109  110  0
117  -113  114  0
121  -117  -118  0
-129  125  126  0
133  -129  -130  0
141  137  -138  0
145  141  -142  0
-157  153  -154  0
-161  -157  158  0
-165  -161  -162  0
-173  169  -170  0
177  173  174  0
185  181  182  0
-193  -189  190  0
205  -201  -202  0
213  -209  -210  0
-217  213  214  0
-221  -217  -218  0
225  -221  222  0
241  237  238  0
249  245  246  0
-257  253  254  0
261  257  258  0
-265  261  -262  0
273  269  270  0
-277  -273  -274  0
281  277  278  0
-285  -281  282  0
-289  -285  -286  0
-305  301  302  0
317  313  -314  0
321  -317  -318  0
-325  -321  322  0
329  -325  326  0
-333  -329  -330  0
-337  333  334  0
341  -337  338  0
-345  -341  342  0
-349  345  -346  0
-353  349  350  0
-361  -357  -358  0
365  -361  -362  0
-369  -365  366  0
-373  369  370  0
377  -373  -374  0
381  377  -378  0
-385  -381  -382  0
-389  385  -386  0
397  -393  -394  0
-401  397  398  0
413  409  -410  0
-417  413  414  0
421  -417  -418  0
-425  -421  -422  0
429  425  426  0
433  429  -430  0
-437  -433  -434  0
441  -437  438  0
-445  -441  442  0
453  449  -450  0
457  -453  454  0
461  -457  458  0
-465  -461  462  0
477  473  474  0
-481  -477  478  0
485  481  -482  0
-489  485  486  0
493  489  490  0
-509  -505  -506  0
-517  -513  -514  0
-525  521  -522  0
-529  -525  -526  0
-533  529  530  0
537  -533  -534  0
-541  537  538  0
-545  -541  -542  0
549  545  546  0
-553  -549  -550  0
-6  -1  -2  0
6  2  3  0
-10  5  6  0
14  9  -10  0
14  10  11  0
18  -17  13  0
-18  14  15  0
22  17  18  0
-22  18  19  0
-26  25  -21  0
-26  22  23  0
-30  -29  -25  0
-34  33  -30  0
34  -33  -29  0
38  37  34  0
-38  -37  -33  0
38  -33  -34  0
-42  37  38  0
42  38  39  0
46  45  -41  0
46  -41  -42  0
50  -49  -45  0
-50  45  46  0
-50  -46  -47  0
54  53  50  0
54  -53  49  0
-58  57  54  0
-58  57  -53  0
58  54  55  0
62  -61  -58  0
-62  -57  58  0
66  -65  61  0
66  61  62  0
-70  -69  -66  0
-70  69  65  0
74  73  69  0
74  70  -71  0
-78  77  -74  0
78  77  -73  0
-82  81  78  0
82  77  78  0
82  -78  -79  0
-86  85  82  0
90  -89  -86  0
-90  -85  -86  0
90  -86  87  0
-94  -93  89  0
-94  -89  -90  0
94  90  91  0
-98  -97  94  0
98  97  -93  0
98  -93  -94  0
-102  -101  98  0
-102  101  -97  0
-102  97  98  0
-102  98  -99  0
-106  -105  101  0
110  -109  -106  0
-110  105  -106  0
-110  -106  -107  0
114  113  -110  0
-114  109  -110  0
-114  -110  -111  0
118  117  -113  0
118  113  114  0
-122  -121  -117  0
126  -125  122  0
-126  -125  121  0
-126  122  -123  0
-130  -129  125  0
-134  -133  -129  0
134  129  -130  0
134  -130  131  0
138  137  134  0
-138  -137  -133  0
-138  133  -134  0
138  134  -135  0
-142  141  -138  0
142  -141  137  0
142  -138  -139  0
-146  -145  142  0
-146  -141  142  0
146  -142  143  0
-150  -149  146  0
150  -149  -145  0
-150  146  -147  0
-154  -150  151  0
158  154  -155  0
-162  -161  157  0
162  158  159  0
-166  165  -162  0
-166  -165  161  0
-166  161  162  0
-166  -162  163  0
-170  169  166  0
-170  169  165  0
170  -165  166  0
170  -166  -167  0
-174  173  170  0
174  169  -170  0
174  170  -171  0
178  -177  174  0
178  177  173  0
178  -173  174  0
-182  -181  -178  0
-182  181  177  0
-182  -177  178  0
-182  178  -179  0
186  -185  -182  0
186  185  -181  0
-186  -182  183  0
-190  -189  186  0
190  -185  -186  0
190  -186  -187  0
-194  -193  -190  0
-194  -193  189  0
-194  189  190  0
-198  -197  193  0
-198  193  -194  0
202  201  197  0
202  197  198  0
-202  -198  199  0
206  205  -202  0
-206  205  -201  0
206  -201  -202  0
-210  -209  205  0
210  205  206  0
-210  206  -207  0
214  213  210  0
214  213  209  0
-214  -209  -210  0
-218  217  -213  0
-218  -213  214  0
218  214  215  0
222  -221  -218  0
222  221  217  0
-222  218  -219  0
-226  -225  -222  0
-226  225  221  0
-226  -221  -222  0
-226  -222  223  0
-230  -225  -226  0
-230  226  227  0
-234  233  230  0
-234  233  229  0
234  230  -231  0
-238  237  -234  0
-238  -237  233  0
238  233  234  0
-238  234  -235  0
242  241  -238  0
242  -241  -237  0
-246  245  -242  0
-246  -245  -241  0
246  241  -242  0
-246  242  -243  0
250  -249  246  0
-250  -249  245  0
-250  -246  -247  0
254  253  250  0
254  -253  -249  0
254  -249  250  0
-258  257  254  0
-258  -257  253  0
-258  -253  254  0
258  254  -255  0
262  -261  -258  0
-262  -261  257  0
-262  -257  -258  0
-266  262  -263  0
-270  -269  -266  0
270  -265  -266  0
270  266  267  0
274  -273  -270  0
274  -273  -269  0
-274  -269  -270  0
278  -277  274  0
-278  -273  274  0
-282  281  278  0
282  -277  -278  0
-282  278  -279  0
286  -285  282  0
-286  285  281  0
286  -281  282  0
-290  286  287  0
-294  -293  290  0
294  293  -289  0
294  -289  290  0
294  -290  -291  0
298  -297  294  0
298  297  -293  0
298  293  -294  0
-302  -297  298  0
-306  305  302  0
306  -301  -302  0
-310  -309  306  0
-310  -305  306  0
314  -313  -310  0
-314  -313  309  0
314  309  -310  0
314  -310  311  0
-318  317  314  0
318  -317  -313  0
-318  -313  -314  0
-318  314  -315  0
-322  -321  318  0
-322  -321  317  0
-322  317  318  0
326  -325  321  0
330  329  -326  0
334  333  330  0
334  -333  -329  0
-334  -329  330  0
-334  -330  -331  0
338  -337  334  0
-338  -337  -333  0
-342  341  337  0
342  338  -339  0
346  345  -342  0
-346  345  -341  0
-346  -341  342  0
346  342  343  0
-350  -345  346  0
350  -346  347  0
-354  353  -350  0
-358  357  354  0
362  357  -358  0
362  358  -359  0
366  365  362  0
-366  365  -361  0
366  361  362  0
-370  366  367  0
374  373  369  0
378  377  374  0
378  -377  -373  0
378  -373  374  0
-378  374  375  0
-382  381  378  0
-382  381  377  0
-382  377  378  0
-382  -378  -379  0
386  385  382  0
-386  -382  383  0
-390  389  386  0
-390  -385  -386  0
394  393  -390  0
394  -393  389  0
-394  390  -391  0
-398  -397  393  0
-398  393  -394  0
-398  -394  395  0
-402  -401  -398  0
402  -398  -399  0
406  405  402  0
-406  -401  402  0
-410  409  405  0
-410  -406  -407  0
414  413  -410  0
-414  409  -410  0
-418  -417  -414  0
418  -417  -413  0
422  421  417  0
-422  -417  -418  0
426  425  -422  0
426  -425  421  0
-430  -429  426  0
430  429  -425  0
430  425  -426  0
-430  -426  427  0
-434  -433  -430  0
-434  -433  -429  0
-434  429  -430  0
434  430  431  0
-438  -437  434  0
438  437  433  0
-438  -433  434  0
-438  -434  435  0
-442  -441  437  0
-442  -437  438  0
-442  -438  -439  0
-446  445  442  0
450  -449  -445  0
-450  445  446  0
450  -446  -447  0
-454  -453  449  0
-454  450  -451  0
458  457  454  0
-458  453  -454  0
462  461  458  0
462  -457  458  0
-466  -465  -462  0
466  461  -462  0
-466  462  -463  0
470  469  -466  0
470  -469  465  0
470  -465  466  0
470  -466  467  0
-474  -473  469  0
478  477  474  0
478  477  -473  0
-478  473  -474  0
-482  481  477  0
-482  -477  -478  0
482  478  -479  0
-486  -481  482  0
490  -489  -486  0
490  -489  -485  0
490  486  487  0
-494  -493  -490  0
494  -493  -489  0
-494  490  491  0
-498  -497  494  0
498  -497  493  0
498  -493  -494  0
-502  -501  -498  0
502  -501  -497  0
-502  497  -498  0
-502  -498  499  0
-506  -505  502  0
506  -501  -502  0
506  502  -503  0
510  509  506  0
-510  -506  -507  0
-514  513  510  0
-514  513  509  0
514  -510  511  0
-518  -517  514  0
-518  517  -513  0
-518  -513  -514  0
522  -521  518  0
522  521  517  0
-522  -517  518  0
-522  -518  -519  0
526  525  -522  0
-526  -525  521  0
526  521  522  0
-526  522  523  0
530  -529  -525  0
530  525  526  0
530  -526  527  0
534  -533  530  0
-534  -533  -529  0
534  529  530  0
-538  537  534  0
-542  541  537  0
542  538  -539  0
546  -545  542  0
-546  -545  -541  0
546  541  -542  0
546  542  543  0
-554  -549  -550  0
-558  -557  554  0
558  557  553  0
558  553  -554  0
-7  -6  3  0
7  6  -2  0
-7  2  3  0
-7  3  4  0
-11  10  6  0
11  -6  7  0
-11  7  8  0
-15  10  11  0
-15  -11  -12  0
-19  18  -14  0
19  -15  -16  0
23  22  -19  0
-23  -22  18  0
-23  18  19  0
-27  -23  -24  0
-35  34  31  0
-39  35  -36  0
43  42  -38  0
43  -38  39  0
-47  46  43  0
-47  46  42  0
-47  -42  -43  0
-47  43  44  0
-51  50  -46  0
51  -46  47  0
-51  47  48  0
55  -54  50  0
55  50  -51  0
59  -58  55  0
59  58  -54  0
-59  54  -55  0
-63  -58  59  0
67  66  -63  0
67  -66  -62  0
67  -62  63  0
-67  63  64  0
71  70  67  0
71  70  66  0
71  -66  67  0
75  74  -70  0
-75  -71  72  0
-79  78  -74  0
-79  74  -75  0
-79  75  76  0
-83  78  79  0
83  -79  -80  0
87  86  -83  0
-87  -86  -82  0
87  -83  -84  0
91  -90  87  0
-91  -90  -86  0
91  -86  87  0
-91  87  -88  0
95  -94  91  0
95  -94  -90  0
-95  90  91  0
-95  91  -92  0
-99  -98  -94  0
-99  -94  -95  0
-99  -95  96  0
103  -102  99  0
-103  102  -98  0
-103  98  99  0
107  -106  103  0
107  106  102  0
111  106  107  0
111  -107  -108  0
-115  114  110  0
119  114  -115  0
119  115  116  0
-127  -126  122  0
-127  122  123  0
-127  123  124  0
-131  130  -126  0
-131  -126  127  0
135  -134  -131  0
-135  130  -131  0
-139  138  135  0
-143  142  138  0
-143  138  -139  0
147  -142  -143  0
147  -143  -144  0
-151  -150  146  0
151  146  147  0
151  -147  -148  0
-155  -154  151  0
-155  154  -150  0
-155  -150  151  0
-159  158  -155  0
-159  -158  -154  0
-159  -154  -155  0
-163  162  159  0
163  162  -158  0
-163  158  159  0
167  166  -163  0
-167  -162  163  0
171  -170  167  0
171  170  166  0
171  -166  167  0
171  167  168  0
-175  -170  -171  0
179  178  175  0
-179  -174  175  0
-183  182  179  0
183  -182  -178  0
183  178  -179  0
187  -186  -183  0
-187  -186  182  0
-187  -182  -183  0
-191  190  187  0
-191  186  -187  0
191  -187  188  0
195  -194  191  0
-195  191  -192  0
-199  198  194  0
199  195  196  0
-203  -198  -199  0
-203  -199  -200  0
-207  -202  203  0
-211  210  207  0
211  -210  206  0
-211  206  207  0
-211  -207  -208  0
215  214  -210  0
-215  -210  -211  0
-219  214  215  0
-223  222  -219  0
-223  -222  218  0
-223  218  219  0
223  219  -220  0
227  -226  -223  0
227  226  -222  0
-227  223  224  0
-235  234  -231  0
235  -234  -230  0
-235  -230  231  0
-235  -231  -232  0
-239  -238  -234  0
-239  234  235  0
-243  -242  -238  0
-243  -239  240  0
-247  246  -242  0
-247  242  -243  0
251  250  247  0
-251  250  -246  0
-251  246  247  0
-255  -254  -251  0
-255  -254  -250  0
-255  -250  251  0
255  251  252  0
-259  -258  255  0
-259  258  254  0
-259  -254  -255  0
259  255  256  0
-267  266  262  0
-267  262  -263  0
267  263  -264  0
-271  266  267  0
-275  -274  -271  0
275  274  270  0
275  -270  -271  0
-275  271  272  0
279  278  -274  0
279  275  276  0
-283  282  279  0
283  -282  -278  0
-287  -282  -283  0
-287  -283  284  0
-291  286  -287  0
291  -287  288  0
-295  294  -291  0
295  -294  -290  0
-295  290  291  0
-295  291  -292  0
-299  298  295  0
299  -298  294  0
-299  294  -295  0
303  302  -299  0
-303  -302  -298  0
-303  -298  299  0
-303  -299  -300  0
-307  306  303  0
-307  306  -302  0
-307  -302  -303  0
-311  -310  -307  0
-311  -310  -306  0
-311  306  307  0
315  314  311  0
315  -311  -312  0
-319  -318  315  0
-319  -318  -314  0
319  -314  315  0
323  -318  319  0
327  326  -323  0
-327  326  -322  0
-327  323  -324  0
331  -330  -327  0
335  -334  330  0
-335  330  331  0
-339  338  -335  0
-339  -334  335  0
-343  -342  339  0
-343  -338  339  0
347  346  343  0
-347  346  -342  0
-347  -343  344  0
-351  -347  -348  0
-355  -354  -350  0
-355  -351  -352  0
-359  -358  355  0
359  -358  -354  0
359  354  -355  0
-359  -355  -356  0
363  -362  -358  0
363  -359  -360  0
-367  366  363  0
367  366  362  0
367  -363  -364  0
-371  370  367  0
-371  366  367  0
375  370  371  0
375  -371  -372  0
379  -378  375  0
-379  378  -374  0
379  374  -375  0
-383  -382  -379  0
383  -382  378  0
-383  379  -380  0
387  -386  383  0
-387  -383  384  0
391  -390  -387  0
-391  386  -387  0
391  -387  388  0
395  -394  -390  0
395  390  391  0
-395  391  -392  0
399  398  -394  0
-399  -394  395  0
-399  -395  -396  0
-403  402  399  0
-403  -402  -398  0
407  -406  -402  0
411  410  -406  0
411  406  -407  0
411  -407  -408  0
-415  414  411  0
-415  -414  -410  0
415  410  -411  0
419  -415  416  0
423  -422  419  0
-427  426  -422  0
-427  -422  -423  0
427  423  -424  0
-431  430  -426  0
-431  -426  -427  0
-431  -427  428  0
-435  -434  431  0
435  434  430  0
-435  430  -431  0
-435  431  432  0
439  -438  -435  0
443  -442  439  0
-443  -439  -440  0
447  442  443  0
-451  450  -447  0
451  450  -446  0
-451  -446  447  0
-451  -447  448  0
455  -454  -451  0
455  -454  450  0
-455  450  451  0
455  451  452  0
459  -458  -454  0
459  -454  -455  0
-459  455  -456  0
463  -462  458  0
463  459  -460  0
467  466  463  0
467  -466  -462  0
467  462  -463  0
467  -463  -464  0
-471  470  -467  0
-471  470  -466  0
-475  -474  -471  0
-475  -474  -470  0
479  -478  475  0
479  474  475  0
-479  -475  476  0
483  -482  -479  0
-483  482  478  0
483  -479  480  0
-487  -482  483  0
491  -490  486  0
-491  -487  -488  0
495  -494  491  0
495  494  -490  0
-495  -490  -491  0
-495  -491  492  0
499  -498  495  0
499  -498  -494  0
499  494  495  0
-499  -495  -496  0
-503  -499  -500  0
-507  -502  503  0
507  503  504  0
511  -507  508  0
-515  510  511  0
-515  511  512  0
-519  -518  -515  0
519  -514  -515  0
519  515  516  0
523  -522  -519  0
-523  522  518  0
-523  519  520  0
-527  522  523  0
-531  -526  527  0
531  527  -528  0
535  -531  532  0
539  -538  535  0
539  538  534  0
539  -534  -535  0
543  -542  539  0
-543  542  538  0
543  -538  -539  0
-547  546  -543  0
-547  542  543  0
547  543  544  0
551  550  -547  0
-551  550  546  0
-555  554  -551  0
-555  -554  550  0
555  550  -551  0
555  -551  -552  0
-559  -558  -554  0
-559  555  -556  0
8  7  3  0
-8  -3  -4  0
16  15  12  0
16  15  -11  0
-16  -11  -12  0
-20  19  16  0
24  -23  20  0
-24  23  -19  0
28  27  23  0
-36  35  32  0
-36  35  -31  0
-36  31  -32  0
-40  39  -36  0
-40  -35  -36  0
-44  43  40  0
-44  -43  39  0
44  39  40  0
52  -51  47  0
-56  55  -52  0
56  -55  -51  0
56  51  52  0
60  59  56  0
60  59  -55  0
60  55  -56  0
68  -67  64  0
68  -67  -63  0
68  63  64  0
72  71  68  0
72  -67  68  0
-76  75  72  0
-76  75  -71  0
-80  79  76  0
-80  79  -75  0
-80  75  -76  0
-84  79  80  0
-88  -87  84  0
-88  87  83  0
88  -83  84  0
-92  -91  -88  0
92  -91  -87  0
-92  -87  -88  0
-96  95  -92  0
96  91  92  0
100  -99  -96  0
-100  -99  -95  0
100  -95  -96  0
-104  -103  -100  0
-104  -103  -99  0
-108  -107  104  0
108  -107  103  0
-108  103  -104  0
112  -107  -108  0
116  -115  112  0
116  115  -111  0
120  119  -116  0
-120  119  -115  0
120  115  -116  0
124  119  -120  0
-128  127  124  0
128  -127  123  0
-128  -123  -124  0
-132  131  128  0
132  131  127  0
-132  -127  128  0
136  135  -131  0
-140  -139  -136  0
-140  -139  135  0
144  -143  -140  0
144  -143  139  0
144  -139  140  0
-148  -147  144  0
148  -147  143  0
-148  143  144  0
-152  -151  -148  0
-156  -155  152  0
156  155  -151  0
156  151  152  0
-160  -159  -156  0
160  -159  155  0
-164  -163  160  0
-164  -159  -160  0
-168  -163  -164  0
172  171  -167  0
176  -175  -171  0
180  -179  175  0
-180  -175  176  0
184  183  -179  0
184  179  -180  0
188  -187  -183  0
192  191  -188  0
-192  -191  -187  0
-192  187  188  0
196  195  192  0
196  -195  191  0
196  191  192  0
200  199  -196  0
204  -203  -199  0
208  207  -204  0
-208  207  -203  0
208  203  204  0
216  -215  -212  0
216  215  -211  0
216  -211  -212  0
220  219  216  0
-220  219  -215  0
220  -215  -216  0
224  -223  219  0
-228  -227  -224  0
228  -227  223  0
228  -223  224  0
-232  -231  228  0
-232  231  -227  0
232  227  -228  0
236  235  -232  0
236  -235  -231  0
-240  235  -236  0
244  243  -239  0
248  -247  -244  0
248  -247  243  0
252  -251  248  0
252  251  -247  0
252  -247  248  0
256  255  -252  0
256  255  251  0
-256  251  252  0
-260  259  256  0
260  -259  -255  0
260  -255  -256  0
-264  -263  260  0
-272  -271  -268  0
272  -267  -268  0
-276  -275  -271  0
280  -279  276  0
-280  -279  -275  0
284  283  279  0
-284  -279  280  0
288  287  -283  0
292  -291  287  0
-292  287  288  0
296  -295  292  0
-296  -295  -291  0
-296  291  -292  0
300  299  -296  0
-304  299  300  0
-308  -307  -304  0
308  -307  -303  0
-308  303  -304  0
312  311  -308  0
312  -311  -307  0
-312  -307  -308  0
316  -315  -312  0
-316  315  -311  0
320  -319  316  0
-320  319  315  0
320  315  316  0
324  323  -320  0
324  -323  -319  0
328  -327  -324  0
328  -327  323  0
-332  331  -327  0
-336  -335  331  0
-336  -331  332  0
340  339  -336  0
-340  -339  335  0
-340  335  336  0
344  343  -340  0
344  339  340  0
-348  347  344  0
-348  347  343  0
-352  -351  -348  0
-352  351  347  0
-352  347  348  0
-356  355  352  0
356  -355  -351  0
356  -351  352  0
360  -355  -356  0
-364  -363  360  0
-364  359  360  0
-368  -363  364  0
-372  367  -368  0
376  -375  -372  0
-376  -375  -371  0
-380  -379  376  0
380  -375  376  0
384  383  380  0
384  383  -379  0
388  387  -384  0
388  -387  -383  0
-388  383  -384  0
-396  -395  -392  0
-396  395  -391  0
-396  391  -392  0
-400  -399  -396  0
-400  -399  395  0
400  395  396  0
404  -403  -400  0
404  -399  400  0
-408  407  -404  0
408  -407  -403  0
-412  411  408  0
-412  -411  -407  0
-416  -415  -412  0
-416  -415  -411  0
416  411  412  0
420  419  -416  0
-424  -423  420  0
-424  423  419  0
424  419  -420  0
-428  427  -424  0
-428  427  423  0
428  -423  424  0
-432  -431  -428  0
-432  -427  428  0
436  435  -432  0
436  -435  431  0
436  -431  -432  0
-440  439  -435  0
-444  443  440  0
448  -447  -444  0
-452  451  -448  0
-456  -455  452  0
456  -455  451  0
456  -451  452  0
-460  459  -455  0
-460  -455  456  0
464  -463  459  0
464  -459  460  0
-468  -467  -464  0
-468  -467  -463  0
468  463  464  0
-472  -471  468  0
-472  471  467  0
-472  467  468  0
-476  -475  472  0
476  -475  471  0
476  -471  472  0
480  479  -476  0
-480  479  475  0
-484  483  480  0
484  -483  479  0
484  479  -480  0
488  487  483  0
488  483  484  0
492  -491  488  0
-496  -491  -492  0
-500  499  -496  0
-500  495  -496  0
-504  503  500  0
504  503  -499  0
-504  499  500  0
-508  -507  504  0
508  507  503  0
512  511  508  0
512  -511  -507  0
-512  -507  508  0
-516  515  512  0
520  -519  515  0
520  -515  516  0
524  523  520  0
-524  523  -519  0
-528  527  -524  0
528  -523  524  0
532  531  528  0
532  -531  527  0
532  -527  -528  0
-536  535  531  0
540  -539  -536  0
-540  -535  -536  0
-544  543  -539  0
-544  -539  -540  0
548  543  544  0
556  -551  552  0
-560  559  556  0
560  -559  555  0
560  555  -556  0
